c generated by gen-graph, n=10 m=52
p sp 10 52
a 1 2 78
a 1 5 87
a 1 7 22
a 1 8 28
a 1 9 60
a 2 4 37
a 2 5 69
a 2 6 30
a 2 7 31
a 2 8 24
a 2 10 30
a 3 5 94
a 3 7 43
a 3 8 74
a 3 9 20
a 3 10 38
a 4 3 71
a 4 5 92
a 4 8 63
a 4 9 97
a 4 10 6
a 5 4 6
a 5 7 58
a 5 8 96
a 5 9 46
a 6 2 65
a 6 4 88
a 6 5 77
a 6 8 4
a 6 10 100
a 7 2 77
a 7 4 13
a 7 5 87
a 7 8 71
a 8 1 2
a 8 3 18
a 8 4 53
a 8 5 2
a 8 6 87
a 8 7 66
a 8 9 20
a 8 10 30
a 9 1 18
a 9 5 10
a 9 6 68
a 9 7 98
a 9 8 87
a 9 10 84
a 10 1 25
a 10 2 72
a 10 3 30
a 10 4 20
